14242
0 0 0 0 1 0 0 1 1 1 1 1 0 1 0 0 1 0 1 0 1 0 1 0 0 1 0 0 0 0
10 10 8 16 16 8 13 18 7 13 20 16 18 7 16 8 13 18 25 16 22 8 18 25 16 22 20 8 8 11 4 13 11 9 4 22 20 9 7 8 4 13 18 9 4 10 20 9 25 7 22 13 8 7 13 22 18 8 8 25 22 13 8 7 13 4 13 10 10 4 8 22 18 10 4 22 7 8 25 9 11 13 10 10 4 20 10 25 25 16 4 13 8 9 4 8 16 18 7 9 4 4 22 10 4 22 20 8 25 9 10 20 9 25 13 22 8 8 7 9 10 20 8 7 7 10 20 8 13 25 22 13 16 7 7 10 16 8 25 11 8 13 18 10 4 10 20 9 25 25